2000	50	0,6	0,15	3,37126460	81
2000	50	0,6	0,15	3,26151330	81
2000	50	0,6	0,15	3,80019050	81
2000	50	0,6	0,15	2,54571980	81
2000	50	0,6	0,15	2,56812810	81
2000	50	0,6	0,15	2,92291370	81
2000	50	0,6	0,15	2,50918000	81
2000	50	0,6	0,15	2,50763300	81
2000	50	0,6	0,15	2,52037780	81
2000	50	0,6	0,15	2,47879280	81
